nServices=10;
nDrivers=10;
nBuses=10;
startTime=[108 118 161 117 114 118 136 145 54 24];
durationTime=[29 13 23 13 10 24 14 26 27 19];
durationDist=[41 51 24 28 50 43 35 38 37 52];
passangers=[11 21 4 10 19 17 9 18 21 13];
capacity=[26 29 12 20 21 20 30 29 21 20];
costTime=[10 6 9 6 7 6 7 6 9 6];
costDist=[6 3 5 5 4 2 6 3 6 4];
maxTime=[39 47 28 55 20 34 58 35 35 31];
costBM=[5 7 5 7 6 7 8 8 5 8];
costEM=[12 9 11 10 10 10 8 11 8 10];
BM=[11 10 12 14 18 11 14 16 20 12];
